data/mip_solutions/chen_grossmann_miller/reduced_transportation/unbalanced10_gurobi.sol
Elapsed time: 61.1851370335
Nodes explored: 2041
Upper bound: 25.0
Lower bound: 24.0
y[0,0]=1
y[0,5]=1
y[0,9]=1
y[1,1]=1
y[1,9]=1
y[2,4]=1
y[2,7]=1
y[3,0]=1
y[3,8]=1
y[3,10]=1
y[4,0]=1
y[4,2]=1
y[4,4]=1
y[5,0]=1
y[5,3]=1
y[5,5]=1
y[5,6]=1
y[5,10]=1
y[6,9]=1
y[7,1]=1
y[8,10]=1
y[9,0]=1
y[10,0]=1
y[10,4]=1
y[11,0]=1
q[0,2,0,2]=60.0
q[0,3,0,4]=60.0
q[0,4,0,5]=90.0
q[0,4,9,4]=30.0
q[0,5,0,5]=32.0
q[0,5,9,5]=28.0
q[0,6,0,6]=24.0
q[0,6,9,6]=28.0
q[0,6,9,7]=8.0
q[0,7,0,7]=60.0
q[0,8,0,8]=156.0
q[0,8,9,8]=24.0
q[0,9,0,9]=64.0
q[0,9,9,9]=56.0
q[0,10,0,10]=96.0
q[0,10,9,10]=84.0
q[0,11,0,11]=128.0
q[0,11,9,11]=112.0
q[0,12,5,13]=32.0
q[0,12,9,12]=28.0
q[0,13,0,13]=180.0
q[0,14,5,14]=60.0
q[0,15,5,15]=170.0
q[0,15,5,16]=10.0
q[0,16,5,16]=10.0
q[0,16,5,17]=50.0
q[1,7,9,7]=20.0
q[1,8,9,8]=60.0
q[1,9,1,10]=10.0
q[1,9,1,12]=30.0
q[1,9,9,12]=1.61648472385e-13
q[1,10,1,10]=20.0
q[1,10,1,11]=40.0
q[1,11,1,11]=38.0
q[1,11,1,12]=1.42108547152e-13
q[1,11,1,14]=10.0
q[1,11,1,15]=6.0
q[1,11,1,16]=16.0
q[1,11,1,17]=10.0
q[1,12,1,13]=6.0
q[1,12,1,16]=14.0
q[1,13,1,13]=60.0
q[1,14,1,14]=20.0
q[1,15,1,15]=60.0
q[1,16,1,17]=20.0
q[2,4,4,4]=10.0
q[2,5,4,5]=5.0
q[2,6,4,6]=5.0
q[2,7,4,7]=3.0
q[2,7,7,7]=2.0
q[2,8,4,8]=9.0
q[2,8,4,11]=8.95283847058e-13
q[2,8,7,8]=6.0
q[2,9,4,9]=6.2669869294e-12
q[2,9,4,10]=5.99999999999
q[2,9,7,9]=4.0
q[2,10,4,10]=9.0
q[2,10,7,10]=6.0
q[2,11,4,11]=12.0
q[2,11,7,11]=8.0
q[2,12,4,12]=3.0
q[2,12,7,12]=2.0
q[2,13,4,13]=6.0
q[2,13,7,13]=6.0
q[2,13,7,14]=2.0
q[2,13,7,15]=1.0
q[2,14,4,14]=5.0
q[2,15,7,15]=5.0
q[3,9,0,9]=136.0
q[3,9,0,10]=24.0
q[3,10,0,10]=180.0
q[3,10,8,11]=60.0
q[3,11,0,11]=270.0
q[3,11,8,11]=50.0
q[3,12,0,13]=25.0
q[3,12,8,12]=55.0
q[3,13,0,13]=40.0
q[3,13,8,13]=165.0
q[3,13,8,15]=35.0
q[3,14,8,14]=55.0
q[3,14,8,15]=25.0
q[3,15,8,15]=105.0
q[3,15,10,19]=135.0
q[3,16,8,16]=55.0
q[3,16,10,19]=25.0
q[3,17,10,19]=80.0
q[3,18,10,19]=80.0
q[4,1,0,1]=60.0
q[4,2,0,3]=10.0
q[4,2,4,2]=20.0
q[4,3,0,4]=30.0
q[4,4,0,4]=57.0
q[4,4,0,5]=3.0
q[4,5,0,5]=15.0
q[4,5,4,5]=15.0
q[4,6,4,6]=15.0
q[4,6,4,7]=15.0
q[4,7,0,8]=28.0
q[4,7,4,7]=2.0
q[4,8,0,8]=35.0
q[4,8,2,8]=4.0
q[4,8,4,8]=51.0
q[4,9,2,9]=8.0
q[4,9,2,10]=12.0
q[4,9,3,9]=5.58486590307e-12
q[4,9,4,9]=40.0
q[4,10,0,11]=38.0
q[4,10,2,15]=7.0
q[4,10,4,10]=45.0
q[4,11,0,12]=24.0
q[4,11,0,13]=12.0
q[4,11,2,11]=16.0
q[4,11,3,11]=9.37916411203e-13
q[4,11,4,11]=68.0
q[4,12,2,12]=4.0
q[4,12,2,15]=5.0
q[4,12,2,16]=4.0
q[4,12,4,12]=17.0
q[4,13,0,13]=11.0
q[4,13,2,13]=12.0
q[4,13,2,17]=4.0
q[4,13,4,13]=54.0
q[4,13,4,14]=9.0
q[4,14,2,14]=4.0
q[4,14,2,18]=20.0
q[4,14,4,14]=6.0
q[5,3,0,3]=15.0
q[5,3,3,3]=25.0
q[5,4,0,4]=30.0
q[5,4,3,4]=50.0
q[5,5,0,5]=5.67013103137e-12
q[5,5,3,5]=25.0
q[5,5,6,5]=15.0
q[5,6,3,6]=25.0
q[5,6,6,6]=15.0
q[5,7,3,7]=25.0
q[5,7,6,7]=15.0
q[5,8,3,8]=75.0
q[5,8,6,8]=45.0
q[5,9,3,9]=50.0
q[5,9,6,9]=30.0
q[5,10,3,10]=75.0
q[5,10,6,10]=45.0
q[5,11,3,11]=100.0
q[5,11,6,11]=60.0
q[5,12,0,12]=40.0
q[5,13,0,13]=32.0
q[5,13,5,13]=88.0
q[5,14,10,19]=40.0
q[5,15,5,15]=10.0
q[5,15,10,19]=110.0
q[5,16,5,16]=40.0
q[5,17,5,17]=10.0
q[5,17,10,19]=30.0
q[6,5,9,5]=2.0
q[6,6,9,6]=2.0
q[6,7,9,7]=2.0
q[6,8,9,8]=6.0
q[6,9,9,9]=4.0
q[6,10,9,10]=6.0
q[6,11,9,11]=8.0
q[6,12,9,12]=2.0
q[7,10,1,11]=18.0
q[7,11,1,11]=24.0
q[7,12,1,13]=6.0
q[7,13,1,13]=18.0
q[7,14,1,15]=6.0
q[7,15,1,15]=18.0
q[8,11,10,19]=60.0
q[8,12,10,19]=15.0
q[8,13,10,19]=45.0
q[8,14,10,19]=15.0
q[8,15,10,19]=45.0
q[8,16,10,19]=15.0
q[8,17,10,19]=15.0
q[8,18,10,19]=45.0
q[9,8,0,8]=120.0
q[9,9,0,9]=80.0
q[9,10,0,10]=120.0
q[9,11,0,11]=124.0
q[9,11,0,12]=36.0
q[9,12,0,12]=40.0
q[9,13,0,13]=120.0
q[10,0,0,1]=80.0
q[10,0,0,2]=80.0
q[10,0,0,3]=115.0
q[10,0,0,4]=103.0
q[10,0,4,0]=80.0
q[10,0,4,1]=40.0
q[10,0,4,3]=20.0
q[10,0,4,4]=30.0
q[11,6,0,6]=116.0
q[11,6,0,7]=80.0
q[11,6,0,8]=81.0
