data/mip_solutions/chen_grossmann_miller/reduced_transportation/unbalanced10_gurobi.log

Gurobi 6.5.2 (linux64) logging started Fri Jan 26 06:20:34 2018

Changed value of parameter LogFile to data/mip_solutions/chen_grossmann_miller/reduced_transportation/unbalanced10_gurobi.log
   Prev: gurobi.log  Default: 
Changed value of parameter Threads to 1
   Prev: 0  Min: 0  Max: 1024  Default: 0
Optimize a model with 594 rows, 27854 columns and 83416 nonzeros
Coefficient statistics:
  Matrix range    [1e+00, 1e+03]
  Objective range [1e+00, 1e+00]
  Bounds range    [1e+00, 1e+00]
  RHS range       [1e+00, 8e+02]
Presolve removed 281 rows and 22832 columns
Presolve time: 0.02s
Presolved: 313 rows, 5022 columns, 14803 nonzeros
Variable types: 4904 continuous, 118 integer (118 binary)

Root relaxation: objective 1.781602e+01, 1906 iterations, 0.03 seconds

    Nodes    |    Current Node    |     Objective Bounds      |     Work
 Expl Unexpl |  Obj  Depth IntInf | Incumbent    BestBd   Gap | It/Node Time

     0     0   17.81602    0   30          -   17.81602      -     -    0s
H    0     0                      38.0000000   17.81602  53.1%     -    0s
     0     0   18.68844    0   48   38.00000   18.68844  50.8%     -    0s
     0     0   18.86150    0   45   38.00000   18.86150  50.4%     -    0s
     0     0   19.46564    0   31   38.00000   19.46564  48.8%     -    0s
     0     0   19.69695    0   37   38.00000   19.69695  48.2%     -    0s
     0     0   20.53494    0   44   38.00000   20.53494  46.0%     -    0s
     0     0   20.84170    0   54   38.00000   20.84170  45.2%     -    0s
     0     0   21.14432    0   44   38.00000   21.14432  44.4%     -    0s
     0     0   21.16893    0   39   38.00000   21.16893  44.3%     -    0s
     0     0   21.31832    0   46   38.00000   21.31832  43.9%     -    0s
     0     0   21.32623    0   48   38.00000   21.32623  43.9%     -    0s
     0     0   21.39327    0   49   38.00000   21.39327  43.7%     -    1s
     0     0   21.46711    0   51   38.00000   21.46711  43.5%     -    1s
     0     0   21.52045    0   50   38.00000   21.52045  43.4%     -    1s
     0     0   21.52240    0   52   38.00000   21.52240  43.4%     -    1s
     0     0   21.59029    0   54   38.00000   21.59029  43.2%     -    1s
     0     0   21.59029    0   49   38.00000   21.59029  43.2%     -    1s
H    0     0                      36.0000000   21.59029  40.0%     -    1s
H    0     0                      35.0000000   21.59029  38.3%     -    1s
H    0     0                      34.0000000   21.59029  36.5%     -    1s
H    0     0                      32.0000000   21.59029  32.5%     -    1s
H    0     0                      30.0000000   21.59029  28.0%     -    1s
H    0     0                      29.0000000   21.59029  25.6%     -    1s
     0     2   21.67765    0   49   29.00000   21.67765  25.2%     -    2s
H   52    46                      28.0000000   21.92568  21.7%  76.1    2s
H   65    51                      27.0000000   21.92568  18.8%  73.4    2s
H  217   145                      26.0000000   22.02166  15.3%   135    3s
H  243    95                      25.0000000   22.06765  11.7%   159    4s
   260   103   23.16749    4   25   25.00000   22.07209  11.7%   168    5s
   436   138   24.00000   26   10   25.00000   22.63223  9.47%   251   10s
   582   178   23.10781    7   36   25.00000   22.77190  8.91%   288   15s
   737   208   23.24472    7   24   25.00000   22.93852  8.25%   305   20s
   889   236   23.59343   13   32   25.00000   23.06855  7.73%   312   25s
  1036   266   23.21767   16   49   25.00000   23.12902  7.48%   314   30s
  1067   285   23.12902   15   37   25.00000   23.12902  7.48%   331   35s
  1193   306   23.45557   29   24   25.00000   23.12902  7.48%   333   40s
  1399   257   23.28571   16   29   25.00000   23.28571  6.86%   333   45s
  1594   221   24.00000   20   26   25.00000   23.42931  6.28%   334   50s
  1762   159   24.00000   29   12   25.00000   23.56581  5.74%   338   55s
  1975    69   24.00000   20   29   25.00000   24.00000  4.00%   336   60s

Cutting planes:
  Cover: 12
  Implied bound: 186
  MIR: 215
  Flow cover: 216
  Network: 10

Explored 2041 nodes (690783 simplex iterations) in 60.96 seconds
Thread count was 1 (of 8 available processors)

Optimal solution found (tolerance 4.00e-02)
Best objective 2.500000000000e+01, best bound 2.400000000000e+01, gap 4.0000%
